1 -1 -2 0
1 1 3 0
1 -4 -5 0
1 4 -6 0
1 7 8 0
1 -3 4 0
1 -3 -9 0
1 -10 6 0
1 8 11 0
1 -8 6 0
1 12 -13 0
1 14 -15 0
1 -14 -12 0
1 -16 17 0
1 -17 16 0
1 6 14 0
1 6 18 0
1 6 10 0
1 -6 1 0
1 5 19 0
1 -20 21 0
1 22 -23 0
1 -24 -22 0
1 -23 25 0
1 -23 -20 0
1 23 -12 0
1 -23 -26 0
1 27 -24 0
1 -27 -28 0
1 27 -29 0
1 30 -31 0
1 32 33 0
1 -34 11 0
1 34 13 0
1 35 36 0
1 -31 -37 0
1 -38 -39 0
1 11 34 0
1 11 8 0
1 11 -39 0
1 13 40 0
1 -13 3 0
1 41 -42 0
1 43 44 0
1 45 -3 0
1 19 6 0
1 19 45 0
1 -19 -7 0
1 -46 -47 0
1 -46 -6 0
1 47 -19 0
1 -47 -28 0
1 -47 18 0
1 47 -48 0
1 -40 -19 0
1 -49 41 0
1 49 -48 0
1 -50 41 0
1 -50 -49 0
1 -50 44 0
1 -50 -18 0
1 50 -13 0
1 -25 44 0
1 -51 16 0
1 51 52 0
1 28 40 0
1 -29 -53 0
1 -29 27 0
1 -29 -23 0
1 54 -46 0
1 55 56 0
1 55 25 0
1 -55 -18 0
1 55 57 0
1 -55 -52 0
1 52 28 0
1 -58 54 0
1 58 53 0
1 59 27 0
1 -60 53 0
1 61 59 0
1 -62 -63 0
1 -62 -64 0
1 -65 -28 0
1 -53 -28 0
1 66 -61 0
1 67 62 0
1 67 -68 0
1 67 61 0
1 63 26 0
1 69 68 0
1 26 -60 0
1 -44 70 0
1 71 49 0
1 -71 33 0
1 72 -73 0
1 72 -49 0
1 -72 -74 0
1 -75 -37 0
1 -75 -74 0
1 74 72 0
1 37 31 0
1 -56 -76 0
1 56 74 0
1 56 50 0
1 77 -73 0
1 77 78 0
1 -79 -80 0
1 79 81 0
1 -79 -60 0
1 82 83 0
1 -84 54 0
1 -83 80 0
1 -83 -65 0
1 83 81 0
1 -83 85 0
1 -86 53 0
1 87 -85 0
1 87 86 0
1 -85 -84 0
1 -85 -77 0
1 85 -57 0
